language Essence 1.3

letting class be function(1 --> 2, 2 --> 1, 3 --> 1, 4 --> 1, 5 --> 2, 6 --> 2, 7 --> 2, 8 --> 1, 9 --> 2)
letting deck_length be 20
letting deck_width be 21
letting length be function(1 --> 9, 2 --> 1, 3 --> 14, 4 --> 6, 5 --> 1, 6 --> 1, 7 --> 1, 8 --> 1, 9 --> 1)
letting n_classes be 2
letting n_containers be 9
letting separation be function()
letting width be function(1 --> 1, 2 --> 1, 3 --> 1, 4 --> 2, 5 --> 1, 6 --> 2, 7 --> 1, 8 --> 1, 9 --> 1)
